# Solution for model GasLib-40
# Objective value = 1.3644277379657179e+01
loadshed[innode_1] 0
loadshed[innode_2] 0
loadshed[innode_3] 0
loadshed[innode_4] 0
loadshed[innode_5] 0
loadshed[innode_6] 0
loadshed[innode_7] 0
loadshed[innode_8] 0
loadshed[source_1] -2.0624870440769416e-01
loadshed[source_2] -3.6724650992824737e-02
loadshed[source_3] 3.2928022747027363e-01
loadshed[sink_1] 0
loadshed[sink_2] 0
loadshed[sink_3] 0
loadshed[sink_4] 0
loadshed[sink_5] 0
loadshed[sink_6] 0
loadshed[sink_7] 0
loadshed[sink_8] 0
loadshed[sink_9] 0
loadshed[sink_10] 0
loadshed[sink_11] 0
loadshed[sink_12] 0.834299763342095
loadshed[sink_13] 0
loadshed[sink_14] 0
loadshed[sink_15] 0
loadshed[sink_16] 0
loadshed[sink_17] 0
loadshed[sink_18] 0
loadshed[sink_19] 0
loadshed[sink_20] 0
loadshed[sink_21] 0
loadshed[sink_22] 0
loadshed[sink_23] 0
loadshed[sink_24] 0
loadshed[sink_25] 0
loadshed[sink_26] 0
loadshed[sink_27] 0
loadshed[sink_28] 0
loadshed[sink_29] 0
flow[source_1,sink_3] 1.9069619274889692e+02
flow[innode_1,sink_16] 1.6354166666666970e+01
flow[innode_6,sink_13] 8.4448915164079352e+00
flow[sink_13,sink_14] -7.9092751502587326e+00
flow[sink_14,sink_10] -24.2634418169254
flow[sink_25,sink_26] 2.3166822262034293e+02
flow[sink_26,sink_9] 1.3052347245575530e+02
flow[sink_9,sink_18] 1.1416930578908863e+02
flow[sink_26,sink_4] 8.4790583497920977e+01
flow[sink_4,sink_20] 2.2781929578326451e+01
flow[sink_18,sink_6] 9.7815139122421954e+01
flow[sink_25,innode_8] -1.5798785941556054e+02
flow[sink_6,sink_7] 4.8752639122421442e+01
flow[sink_6,sink_22] 3.2708333333333641e+01
flow[sink_7,sink_24] 3.5418222620342824e+01
flow[sink_22,sink_1] 1.6354166666666970e+01
flow[sink_24,sink_21] 1.9064055953676156e+01
flow[sink_21,sink_12] 2.7098892870094891e+00
flow[sink_7,sink_5] -3.0197501645876628e+00
flow[sink_5,sink_17] -1.9373916831254292e+01
flow[sink_17,sink_4] -4.5654487252927865e+01
flow[sink_17,sink_8] 9.9264037550069215e+00
flow[sink_3,sink_23] 16.3541666666697
flow[sink_8,sink_20] -6.4277629116597836e+00
flow[sink_25,sink_20] 0
flow[sink_25,sink_15] -9.8479421387857485e+01
flow[sink_15,sink_29] -6.3877372170932190e+01
flow[sink_29,sink_28] 1.6354166666667879e+01
flow[sink_29,sink_2] 6.7310382550258623e+01
flow[sink_2,sink_15] 5.0956215883591952e+01
flow[sink_29,innode_7] -1.6389608805452536e+02
flow[innode_4,sink_19] 8.9680108483592662e+01
flow[sink_19,innode_3] 35.7827500980276
flow[innode_4,innode_5] 1.6354166666679703e+01
flow[sink_27,innode_5] -1.6354166666679703e+01
flow[sink_27,sink_19] 0
flow[sink_10,sink_11] 3.2708333333333641e+01
flow[sink_10,innode_2] -3.7543191718898107e+01
flow[sink_10,innode_3] -35.7827500980276
flow[innode_6,sink_25] -8.4448915164079352e+00
flow[sink_11,innode_1] 1.6354166666666970e+01
flow[sink_19,innode_2] 3.7543191718898107e+01
flow[source_3,innode_4] 1.0603427515027236e+02
flow[source_2,innode_7] 1.6389608805452536e+02
flow[sink_3,innode_8] 1.5798785941556054e+02
pressure[innode_1] 7.5244066250703412e+01
pressure[innode_2] 7.7380080299110872e+01
pressure[innode_3] 7.7300843450975677e+01
pressure[innode_4] 81.01325
pressure[innode_5] 8.1002000741808786e+01
pressure[innode_6] 7.4280541783836128e+01
pressure[innode_7] 81.01325
pressure[innode_8] 8.0375825476226538e+01
pressure[source_1] 81.01325
pressure[source_2] 81.01325
pressure[source_3] 81.01325
pressure[sink_1] 41.3080993922007
pressure[sink_2] 7.4924623752356510e+01
pressure[sink_3] 8.0375825476226538e+01
pressure[sink_4] 4.7183790682135381e+01
pressure[sink_5] 43.9958099551114
pressure[sink_6] 4.3409177002588073e+01
pressure[sink_7] 4.2739919476140557e+01
pressure[sink_8] 4.5064477718507533e+01
pressure[sink_9] 5.0152118217601519e+01
pressure[sink_10] 7.5395767558306957e+01
pressure[sink_11] 7.5244066250703412e+01
pressure[sink_12] 1.01325
pressure[sink_13] 7.4233986508178646e+01
pressure[sink_14] 7.4248140829781150e+01
pressure[sink_15] 7.4758262938065684e+01
pressure[sink_16] 7.4222416415885732e+01
pressure[sink_17] 4.5439026720346760e+01
pressure[sink_18] 4.6021132451098907e+01
pressure[sink_19] 7.7380080299110872e+01
pressure[sink_20] 45.5124023980782
pressure[sink_21] 1.9775769211363650e+00
pressure[sink_22] 4.2371868534555716e+01
pressure[sink_23] 8.0211107464566751e+01
pressure[sink_24] 2.1886936282028988e+00
pressure[sink_25] 7.4280541783836128e+01
pressure[sink_26] 5.7964284915887696e+01
pressure[sink_27] 8.0866291377726043e+01
pressure[sink_28] 7.6334389433111554e+01
pressure[sink_29] 7.6629671706728729e+01
interdiction[source_1,sink_3] 0
interdiction[innode_1,sink_16] 0
interdiction[innode_6,sink_13] 0
interdiction[sink_13,sink_14] 0
interdiction[sink_14,sink_10] 0
interdiction[sink_25,sink_26] 0
interdiction[sink_26,sink_9] 0
interdiction[sink_9,sink_18] 0
interdiction[sink_26,sink_4] 0
interdiction[sink_4,sink_20] 0
interdiction[sink_18,sink_6] 0
interdiction[sink_25,innode_8] 0
interdiction[sink_6,sink_7] 0
interdiction[sink_6,sink_22] 0
interdiction[sink_7,sink_24] 0
interdiction[sink_22,sink_1] 0
interdiction[sink_24,sink_21] 0
interdiction[sink_21,sink_12] 0
interdiction[sink_7,sink_5] 0
interdiction[sink_5,sink_17] 0
interdiction[sink_17,sink_4] 0
interdiction[sink_17,sink_8] 0
interdiction[sink_3,sink_23] 0
interdiction[sink_8,sink_20] 0
interdiction[sink_25,sink_20] 1
interdiction[sink_25,sink_15] 0
interdiction[sink_15,sink_29] 0
interdiction[sink_29,sink_28] 0
interdiction[sink_29,sink_2] 0
interdiction[sink_2,sink_15] 0
interdiction[sink_29,innode_7] 0
interdiction[innode_4,sink_19] 0
interdiction[sink_19,innode_3] 0
interdiction[innode_4,innode_5] 0
interdiction[sink_27,innode_5] 0
interdiction[sink_27,sink_19] 1
interdiction[sink_10,sink_11] 0
interdiction[sink_10,innode_2] 0
interdiction[sink_10,innode_3] 0
interdiction[innode_6,sink_25] 0
interdiction[sink_11,innode_1] 0
interdiction[sink_19,innode_2] 0
interdiction[source_3,innode_4] 0
interdiction[source_2,innode_7] 0
interdiction[sink_3,innode_8] 0
WCcheckFlow[source_1,sink_3] 39
WCcheckFlow[innode_1,sink_16] 1
WCcheckFlow[innode_6,sink_13] 13
WCcheckFlow[sink_13,sink_14] 12
WCcheckFlow[sink_14,sink_10] 11
WCcheckFlow[sink_25,sink_26] 15
WCcheckFlow[sink_26,sink_9] 12
WCcheckFlow[sink_9,sink_18] 11
WCcheckFlow[sink_26,sink_4] 2
WCcheckFlow[sink_4,sink_20] 1
WCcheckFlow[sink_18,sink_6] 10
WCcheckFlow[sink_25,innode_8] -36
WCcheckFlow[sink_6,sink_7] 7
WCcheckFlow[sink_6,sink_22] 2
WCcheckFlow[sink_7,sink_24] 3
WCcheckFlow[sink_22,sink_1] 1
WCcheckFlow[sink_24,sink_21] 2
WCcheckFlow[sink_21,sink_12] 1
WCcheckFlow[sink_7,sink_5] 3
WCcheckFlow[sink_5,sink_17] 2
WCcheckFlow[sink_17,sink_4] 0
WCcheckFlow[sink_17,sink_8] 1
WCcheckFlow[sink_3,sink_23] 1
WCcheckFlow[sink_8,sink_20] 0
WCcheckFlow[sink_25,sink_20] 0
WCcheckFlow[sink_25,sink_15] 6
WCcheckFlow[sink_15,sink_29] 5
WCcheckFlow[sink_29,sink_28] 1
WCcheckFlow[sink_29,sink_2] 1
WCcheckFlow[sink_2,sink_15] 0
WCcheckFlow[sink_29,innode_7] 2
WCcheckFlow[innode_4,sink_19] -4
WCcheckFlow[sink_19,innode_3] -5
WCcheckFlow[innode_4,innode_5] 2
WCcheckFlow[sink_27,innode_5] -1
WCcheckFlow[sink_27,sink_19] 0
WCcheckFlow[sink_10,sink_11] 3
WCcheckFlow[sink_10,innode_2] 1
WCcheckFlow[sink_10,innode_3] 6
WCcheckFlow[innode_6,sink_25] -14
WCcheckFlow[sink_11,innode_1] 2
WCcheckFlow[sink_19,innode_2] 0
WCcheckFlow[source_3,innode_4] -1
WCcheckFlow[source_2,innode_7] -1
WCcheckFlow[sink_3,innode_8] 37
